p cnf 50 20
x -1 -5 6 7 -8 11 -13 -15 -16 -19 20 -21 -23 25 26 27 -28 29 32 -34 38 42 45 -48 -49 50 0
x -1 3 -4 5 -9 14 15 -16 -18 19 20 -22 23 -25 -26 27 29 32 -34 -41 44 -46 -47 -49 0
x -1 2 8 10 -11 12 -14 17 18 -19 -20 -21 24 33 -34 35 -36 38 -42 44 45 -46 -47 48 -49 50 0
x 1 3 -4 5 10 -11 -12 13 14 19 -20 -23 24 26 27 31 35 -36 -38 -39 -40 43 -45 47 48 49 -50 0
x 2 3 -7 8 -10 -11 12 -13 -14 16 -18 21 -24 -25 28 30 -33 -34 35 -36 -37 38 39 46 49 0
x 1 -2 -3 4 5 6 7 -9 17 -18 -20 21 22 -23 25 -27 28 29 32 -34 35 -44 -46 50 0
x 3 -4 6 -7 -8 -9 10 -11 12 15 -17 18 -20 -21 -22 23 26 29 30 32 -33 -35 37 -45 -48 -50 0
x -1 3 -4 5 -6 8 9 -11 12 13 -16 17 18 -21 22 -23 -24 -26 29 -30 35 36 -37 38 39 40 -42 -43 -48 -49 50 0
x 1 -6 7 -11 12 13 14 -15 16 -17 -18 -20 -24 -25 -30 32 33 -35 -36 37 39 -41 -42 -43 45 -48 -49 50 0
x 1 2 3 -4 5 -6 -9 -10 -11 12 -14 15 -16 -17 18 -20 -21 26 -28 29 -30 -31 -33 -35 -37 38 41 -43 -44 -47 -49 -50 0
x -2 -3 -7 -11 -12 -13 14 17 -21 -24 26 32 33 -35 -36 -42 43 -49 -50 0
x -2 5 -6 11 -14 18 -21 22 -23 25 26 -28 -30 32 34 -35 36 -39 -40 -41 42 44 46 47 48 -49 -50 0
x 1 2 7 9 11 13 14 17 -21 -22 -24 25 28 29 -30 -31 33 -34 35 36 39 40 -42 -44 -46 -48 0
x -1 -2 3 6 -8 9 11 -12 -13 -14 -19 20 22 -23 -24 25 -26 27 -28 -31 33 37 -38 39 -40 41 42 -46 47 -48 49 50 0
x -1 -4 -5 -6 7 8 9 11 -14 16 -20 24 27 -28 30 -31 33 -40 -44 47 49 0
x -1 -2 -4 6 -7 9 -10 14 15 17 21 23 -25 30 -31 -32 33 -34 35 38 41 -43 45 47 48 -49 50 0
x -1 -2 -9 12 -18 20 -21 -24 -25 27 29 31 -32 34 -36 -37 42 -45 49 -50 0
x 1 -2 5 9 10 -11 12 14 15 18 19 20 24 28 30 -31 -32 -33 34 35 36 38 -40 -41 42 -43 -44 -45 -47 48 -49 0
x 1 3 4 5 9 10 12 13 14 16 -17 18 19 -23 -27 -28 -29 -30 32 -35 -36 37 -39 41 -43 45 46 0
x -11 -12 -13 -16 -20 22 23 28 -29 -30 32 -36 -37 39 41 -42 48 49 50 0
g -20